p tw 50 218
0 1
0 2
0 3
0 31
0 32
0 10
0 28
0 27
1 2
1 3
1 16
1 20
1 13
1 35
1 7
1 43
2 3
2 4
2 43
2 44
2 31
2 36
2 37
3 4
3 31
3 20
3 43
3 37
4 17
4 19
4 11
4 34
4 5
4 9
4 47
5 6
5 7
5 17
5 18
5 9
5 26
5 30
6 7
6 20
6 29
6 38
6 13
6 36
6 42
6 11
7 20
7 21
7 28
7 35
7 33
7 45
8 9
8 10
8 22
8 40
8 28
8 45
8 14
8 30
8 32
9 10
9 29
9 37
9 43
9 22
9 39
9 41
10 28
10 22
10 45
11 12
11 13
11 25
11 34
11 35
11 41
11 42
12 13
12 25
12 37
12 15
12 42
12 34
12 46
12 16
12 18
13 35
13 36
13 44
13 49
13 42
14 15
14 16
14 34
14 48
14 30
15 16
15 19
15 22
15 42
15 30
15 21
15 24
16 20
16 18
16 38
16 43
17 18
17 19
17 36
17 38
17 47
18 36
18 38
18 24
18 48
18 34
19 22
19 26
19 44
19 25
19 43
19 49
20 21
20 29
20 38
20 37
20 39
20 43
21 23
21 24
21 39
21 33
22 23
22 28
22 40
22 45
22 27
22 32
23 24
23 28
23 33
23 34
23 40
23 41
23 46
24 39
24 48
24 33
25 26
25 27
25 30
25 37
25 32
26 27
26 30
26 44
27 32
27 31
27 45
27 49
27 40
28 35
28 45
28 31
28 40
29 37
29 43
29 38
29 41
29 33
31 32
31 46
31 47
31 40
32 35
32 39
32 40
32 49
33 34
33 35
33 40
33 48
33 38
34 45
34 47
34 48
34 46
35 39
36 38
36 37
36 44
36 46
36 47
37 39
37 43
37 49
38 41
39 41
39 42
40 49
41 42
41 46
43 44
43 49
44 49
44 46
45 47
45 49
45 48
46 47
46 48
47 48
